c Generated by SAT Solver
p cnf 3004 1046
101 102 103 104 0
201 202 203 204 0
301 302 303 304 0
401 402 403 404 0
501 502 503 504 0
601 602 603 604 0
701 702 703 704 0
801 802 803 804 0
901 902 903 904 0
1001 1002 1003 1004 0
1101 1102 1103 1104 0
1201 1202 1203 1204 0
1301 1302 1303 1304 0
1401 1402 1403 1404 0
1501 1502 1503 1504 0
1601 1602 1603 1604 0
1701 1702 1703 1704 0
1801 1802 1803 1804 0
1901 1902 1903 1904 0
2001 2002 2003 2004 0
2101 2102 2103 2104 0
2201 2202 2203 2204 0
2301 2302 2303 2304 0
2401 2402 2403 2404 0
2501 2502 2503 2504 0
2601 2602 2603 2604 0
2701 2702 2703 2704 0
2801 2802 2803 2804 0
2901 2902 2903 2904 0
3001 3002 3003 3004 0
-101 -102 0
-101 -103 0
-101 -104 0
-102 -103 0
-102 -104 0
-103 -104 0
-201 -202 0
-201 -203 0
-201 -204 0
-202 -203 0
-202 -204 0
-203 -204 0
-301 -302 0
-301 -303 0
-301 -304 0
-302 -303 0
-302 -304 0
-303 -304 0
-401 -402 0
-401 -403 0
-401 -404 0
-402 -403 0
-402 -404 0
-403 -404 0
-501 -502 0
-501 -503 0
-501 -504 0
-502 -503 0
-502 -504 0
-503 -504 0
-601 -602 0
-601 -603 0
-601 -604 0
-602 -603 0
-602 -604 0
-603 -604 0
-701 -702 0
-701 -703 0
-701 -704 0
-702 -703 0
-702 -704 0
-703 -704 0
-801 -802 0
-801 -803 0
-801 -804 0
-802 -803 0
-802 -804 0
-803 -804 0
-901 -902 0
-901 -903 0
-901 -904 0
-902 -903 0
-902 -904 0
-903 -904 0
-1001 -1002 0
-1001 -1003 0
-1001 -1004 0
-1002 -1003 0
-1002 -1004 0
-1003 -1004 0
-1101 -1102 0
-1101 -1103 0
-1101 -1104 0
-1102 -1103 0
-1102 -1104 0
-1103 -1104 0
-1201 -1202 0
-1201 -1203 0
-1201 -1204 0
-1202 -1203 0
-1202 -1204 0
-1203 -1204 0
-1301 -1302 0
-1301 -1303 0
-1301 -1304 0
-1302 -1303 0
-1302 -1304 0
-1303 -1304 0
-1401 -1402 0
-1401 -1403 0
-1401 -1404 0
-1402 -1403 0
-1402 -1404 0
-1403 -1404 0
-1501 -1502 0
-1501 -1503 0
-1501 -1504 0
-1502 -1503 0
-1502 -1504 0
-1503 -1504 0
-1601 -1602 0
-1601 -1603 0
-1601 -1604 0
-1602 -1603 0
-1602 -1604 0
-1603 -1604 0
-1701 -1702 0
-1701 -1703 0
-1701 -1704 0
-1702 -1703 0
-1702 -1704 0
-1703 -1704 0
-1801 -1802 0
-1801 -1803 0
-1801 -1804 0
-1802 -1803 0
-1802 -1804 0
-1803 -1804 0
-1901 -1902 0
-1901 -1903 0
-1901 -1904 0
-1902 -1903 0
-1902 -1904 0
-1903 -1904 0
-2001 -2002 0
-2001 -2003 0
-2001 -2004 0
-2002 -2003 0
-2002 -2004 0
-2003 -2004 0
-2101 -2102 0
-2101 -2103 0
-2101 -2104 0
-2102 -2103 0
-2102 -2104 0
-2103 -2104 0
-2201 -2202 0
-2201 -2203 0
-2201 -2204 0
-2202 -2203 0
-2202 -2204 0
-2203 -2204 0
-2301 -2302 0
-2301 -2303 0
-2301 -2304 0
-2302 -2303 0
-2302 -2304 0
-2303 -2304 0
-2401 -2402 0
-2401 -2403 0
-2401 -2404 0
-2402 -2403 0
-2402 -2404 0
-2403 -2404 0
-2501 -2502 0
-2501 -2503 0
-2501 -2504 0
-2502 -2503 0
-2502 -2504 0
-2503 -2504 0
-2601 -2602 0
-2601 -2603 0
-2601 -2604 0
-2602 -2603 0
-2602 -2604 0
-2603 -2604 0
-2701 -2702 0
-2701 -2703 0
-2701 -2704 0
-2702 -2703 0
-2702 -2704 0
-2703 -2704 0
-2801 -2802 0
-2801 -2803 0
-2801 -2804 0
-2802 -2803 0
-2802 -2804 0
-2803 -2804 0
-2901 -2902 0
-2901 -2903 0
-2901 -2904 0
-2902 -2903 0
-2902 -2904 0
-2903 -2904 0
-3001 -3002 0
-3001 -3003 0
-3001 -3004 0
-3002 -3003 0
-3002 -3004 0
-3003 -3004 0
-101 -301 0
-102 -302 0
-103 -303 0
-104 -304 0
-101 -601 0
-102 -602 0
-103 -603 0
-104 -604 0
-101 -801 0
-102 -802 0
-103 -803 0
-104 -804 0
-101 -1001 0
-102 -1002 0
-103 -1003 0
-104 -1004 0
-101 -1301 0
-102 -1302 0
-103 -1303 0
-104 -1304 0
-101 -1501 0
-102 -1502 0
-103 -1503 0
-104 -1504 0
-101 -1601 0
-102 -1602 0
-103 -1603 0
-104 -1604 0
-101 -1701 0
-102 -1702 0
-103 -1703 0
-104 -1704 0
-101 -1801 0
-102 -1802 0
-103 -1803 0
-104 -1804 0
-101 -1901 0
-102 -1902 0
-103 -1903 0
-104 -1904 0
-101 -2601 0
-102 -2602 0
-103 -2603 0
-104 -2604 0
-101 -2701 0
-102 -2702 0
-103 -2703 0
-104 -2704 0
-101 -2901 0
-102 -2902 0
-103 -2903 0
-104 -2904 0
-101 -3001 0
-102 -3002 0
-103 -3003 0
-104 -3004 0
-201 -301 0
-202 -302 0
-203 -303 0
-204 -304 0
-201 -501 0
-202 -502 0
-203 -503 0
-204 -504 0
-201 -601 0
-202 -602 0
-203 -603 0
-204 -604 0
-201 -1501 0
-202 -1502 0
-203 -1503 0
-204 -1504 0
-201 -1601 0
-202 -1602 0
-203 -1603 0
-204 -1604 0
-201 -2001 0
-202 -2002 0
-203 -2003 0
-204 -2004 0
-201 -2201 0
-202 -2202 0
-203 -2203 0
-204 -2204 0
-201 -2301 0
-202 -2302 0
-203 -2303 0
-204 -2304 0
-201 -2501 0
-202 -2502 0
-203 -2503 0
-204 -2504 0
-201 -2601 0
-202 -2602 0
-203 -2603 0
-204 -2604 0
-201 -2701 0
-202 -2702 0
-203 -2703 0
-204 -2704 0
-201 -2801 0
-202 -2802 0
-203 -2803 0
-204 -2804 0
-201 -2901 0
-202 -2902 0
-203 -2903 0
-204 -2904 0
-301 -401 0
-302 -402 0
-303 -403 0
-304 -404 0
-301 -501 0
-302 -502 0
-303 -503 0
-304 -504 0
-301 -601 0
-302 -602 0
-303 -603 0
-304 -604 0
-301 -801 0
-302 -802 0
-303 -803 0
-304 -804 0
-301 -1001 0
-302 -1002 0
-303 -1003 0
-304 -1004 0
-301 -1401 0
-302 -1402 0
-303 -1403 0
-304 -1404 0
-301 -1501 0
-302 -1502 0
-303 -1503 0
-304 -1504 0
-301 -1801 0
-302 -1802 0
-303 -1803 0
-304 -1804 0
-301 -2101 0
-302 -2102 0
-303 -2103 0
-304 -2104 0
-301 -2401 0
-302 -2402 0
-303 -2403 0
-304 -2404 0
-301 -2601 0
-302 -2602 0
-303 -2603 0
-304 -2604 0
-401 -701 0
-402 -702 0
-403 -703 0
-404 -704 0
-401 -801 0
-402 -802 0
-403 -803 0
-404 -804 0
-401 -901 0
-402 -902 0
-403 -903 0
-404 -904 0
-401 -1001 0
-402 -1002 0
-403 -1003 0
-404 -1004 0
-401 -1101 0
-402 -1102 0
-403 -1103 0
-404 -1104 0
-401 -1201 0
-402 -1202 0
-403 -1203 0
-404 -1204 0
-401 -1301 0
-402 -1302 0
-403 -1303 0
-404 -1304 0
-401 -1501 0
-402 -1502 0
-403 -1503 0
-404 -1504 0
-401 -1801 0
-402 -1802 0
-403 -1803 0
-404 -1804 0
-401 -2001 0
-402 -2002 0
-403 -2003 0
-404 -2004 0
-401 -2301 0
-402 -2302 0
-403 -2303 0
-404 -2304 0
-401 -2501 0
-402 -2502 0
-403 -2503 0
-404 -2504 0
-401 -2901 0
-402 -2902 0
-403 -2903 0
-404 -2904 0
-501 -601 0
-502 -602 0
-503 -603 0
-504 -604 0
-501 -701 0
-502 -702 0
-503 -703 0
-504 -704 0
-501 -801 0
-502 -802 0
-503 -803 0
-504 -804 0
-501 -901 0
-502 -902 0
-503 -903 0
-504 -904 0
-501 -1001 0
-502 -1002 0
-503 -1003 0
-504 -1004 0
-501 -1101 0
-502 -1102 0
-503 -1103 0
-504 -1104 0
-501 -1201 0
-502 -1202 0
-503 -1203 0
-504 -1204 0
-501 -1301 0
-502 -1302 0
-503 -1303 0
-504 -1304 0
-501 -1401 0
-502 -1402 0
-503 -1403 0
-504 -1404 0
-501 -1501 0
-502 -1502 0
-503 -1503 0
-504 -1504 0
-501 -1801 0
-502 -1802 0
-503 -1803 0
-504 -1804 0
-501 -1901 0
-502 -1902 0
-503 -1903 0
-504 -1904 0
-501 -2101 0
-502 -2102 0
-503 -2103 0
-504 -2104 0
-501 -2301 0
-502 -2302 0
-503 -2303 0
-504 -2304 0
-501 -2401 0
-502 -2402 0
-503 -2403 0
-504 -2404 0
-501 -2501 0
-502 -2502 0
-503 -2503 0
-504 -2504 0
-601 -1001 0
-602 -1002 0
-603 -1003 0
-604 -1004 0
-601 -1301 0
-602 -1302 0
-603 -1303 0
-604 -1304 0
-601 -1401 0
-602 -1402 0
-603 -1403 0
-604 -1404 0
-601 -1501 0
-602 -1502 0
-603 -1503 0
-604 -1504 0
-601 -1701 0
-602 -1702 0
-603 -1703 0
-604 -1704 0
-601 -2101 0
-602 -2102 0
-603 -2103 0
-604 -2104 0
-601 -2201 0
-602 -2202 0
-603 -2203 0
-604 -2204 0
-601 -2401 0
-602 -2402 0
-603 -2403 0
-604 -2404 0
-601 -2501 0
-602 -2502 0
-603 -2503 0
-604 -2504 0
-701 -801 0
-702 -802 0
-703 -803 0
-704 -804 0
-701 -901 0
-702 -902 0
-703 -903 0
-704 -904 0
-701 -1001 0
-702 -1002 0
-703 -1003 0
-704 -1004 0
-701 -1101 0
-702 -1102 0
-703 -1103 0
-704 -1104 0
-701 -1301 0
-702 -1302 0
-703 -1303 0
-704 -1304 0
-701 -1701 0
-702 -1702 0
-703 -1703 0
-704 -1704 0
-701 -1801 0
-702 -1802 0
-703 -1803 0
-704 -1804 0
-701 -1901 0
-702 -1902 0
-703 -1903 0
-704 -1904 0
-701 -2001 0
-702 -2002 0
-703 -2003 0
-704 -2004 0
-701 -2301 0
-702 -2302 0
-703 -2303 0
-704 -2304 0
-701 -2901 0
-702 -2902 0
-703 -2903 0
-704 -2904 0
-801 -901 0
-802 -902 0
-803 -903 0
-804 -904 0
-801 -1101 0
-802 -1102 0
-803 -1103 0
-804 -1104 0
-801 -1201 0
-802 -1202 0
-803 -1203 0
-804 -1204 0
-801 -1401 0
-802 -1402 0
-803 -1403 0
-804 -1404 0
-801 -1901 0
-802 -1902 0
-803 -1903 0
-804 -1904 0
-801 -2001 0
-802 -2002 0
-803 -2003 0
-804 -2004 0
-801 -2401 0
-802 -2402 0
-803 -2403 0
-804 -2404 0
-801 -2501 0
-802 -2502 0
-803 -2503 0
-804 -2504 0
-801 -2701 0
-802 -2702 0
-803 -2703 0
-804 -2704 0
-801 -2801 0
-802 -2802 0
-803 -2803 0
-804 -2804 0
-801 -2901 0
-802 -2902 0
-803 -2903 0
-804 -2904 0
-901 -1001 0
-902 -1002 0
-903 -1003 0
-904 -1004 0
-901 -1401 0
-902 -1402 0
-903 -1403 0
-904 -1404 0
-901 -1901 0
-902 -1902 0
-903 -1903 0
-904 -1904 0
-901 -2001 0
-902 -2002 0
-903 -2003 0
-904 -2004 0
-901 -2301 0
-902 -2302 0
-903 -2303 0
-904 -2304 0
-901 -2401 0
-902 -2402 0
-903 -2403 0
-904 -2404 0
-901 -2501 0
-902 -2502 0
-903 -2503 0
-904 -2504 0
-901 -2701 0
-902 -2702 0
-903 -2703 0
-904 -2704 0
-901 -2901 0
-902 -2902 0
-903 -2903 0
-904 -2904 0
-1001 -1301 0
-1002 -1302 0
-1003 -1303 0
-1004 -1304 0
-1001 -1601 0
-1002 -1602 0
-1003 -1603 0
-1004 -1604 0
-1001 -1801 0
-1002 -1802 0
-1003 -1803 0
-1004 -1804 0
-1001 -1901 0
-1002 -1902 0
-1003 -1903 0
-1004 -1904 0
-1001 -2101 0
-1002 -2102 0
-1003 -2103 0
-1004 -2104 0
-1001 -2401 0
-1002 -2402 0
-1003 -2403 0
-1004 -2404 0
-1001 -2701 0
-1002 -2702 0
-1003 -2703 0
-1004 -2704 0
-1001 -2801 0
-1002 -2802 0
-1003 -2803 0
-1004 -2804 0
-1101 -1201 0
-1102 -1202 0
-1103 -1203 0
-1104 -1204 0
-1101 -1801 0
-1102 -1802 0
-1103 -1803 0
-1104 -1804 0
-1101 -1901 0
-1102 -1902 0
-1103 -1903 0
-1104 -1904 0
-1101 -2401 0
-1102 -2402 0
-1103 -2403 0
-1104 -2404 0
-1101 -2501 0
-1102 -2502 0
-1103 -2503 0
-1104 -2504 0
-1101 -2601 0
-1102 -2602 0
-1103 -2603 0
-1104 -2604 0
-1101 -2801 0
-1102 -2802 0
-1103 -2803 0
-1104 -2804 0
-1101 -2901 0
-1102 -2902 0
-1103 -2903 0
-1104 -2904 0
-1101 -3001 0
-1102 -3002 0
-1103 -3003 0
-1104 -3004 0
-1201 -1301 0
-1202 -1302 0
-1203 -1303 0
-1204 -1304 0
-1201 -1401 0
-1202 -1402 0
-1203 -1403 0
-1204 -1404 0
-1201 -1601 0
-1202 -1602 0
-1203 -1603 0
-1204 -1604 0
-1201 -1701 0
-1202 -1702 0
-1203 -1703 0
-1204 -1704 0
-1201 -1801 0
-1202 -1802 0
-1203 -1803 0
-1204 -1804 0
-1201 -2001 0
-1202 -2002 0
-1203 -2003 0
-1204 -2004 0
-1201 -2301 0
-1202 -2302 0
-1203 -2303 0
-1204 -2304 0
-1201 -2401 0
-1202 -2402 0
-1203 -2403 0
-1204 -2404 0
-1201 -2801 0
-1202 -2802 0
-1203 -2803 0
-1204 -2804 0
-1301 -1401 0
-1302 -1402 0
-1303 -1403 0
-1304 -1404 0
-1301 -1501 0
-1302 -1502 0
-1303 -1503 0
-1304 -1504 0
-1301 -1701 0
-1302 -1702 0
-1303 -1703 0
-1304 -1704 0
-1301 -1901 0
-1302 -1902 0
-1303 -1903 0
-1304 -1904 0
-1301 -2001 0
-1302 -2002 0
-1303 -2003 0
-1304 -2004 0
-1301 -2101 0
-1302 -2102 0
-1303 -2103 0
-1304 -2104 0
-1301 -2201 0
-1302 -2202 0
-1303 -2203 0
-1304 -2204 0
-1301 -2601 0
-1302 -2602 0
-1303 -2603 0
-1304 -2604 0
-1301 -2701 0
-1302 -2702 0
-1303 -2703 0
-1304 -2704 0
-1301 -3001 0
-1302 -3002 0
-1303 -3003 0
-1304 -3004 0
-1401 -1601 0
-1402 -1602 0
-1403 -1603 0
-1404 -1604 0
-1401 -1701 0
-1402 -1702 0
-1403 -1703 0
-1404 -1704 0
-1401 -1801 0
-1402 -1802 0
-1403 -1803 0
-1404 -1804 0
-1401 -1901 0
-1402 -1902 0
-1403 -1903 0
-1404 -1904 0
-1401 -2001 0
-1402 -2002 0
-1403 -2003 0
-1404 -2004 0
-1401 -2201 0
-1402 -2202 0
-1403 -2203 0
-1404 -2204 0
-1401 -2301 0
-1402 -2302 0
-1403 -2303 0
-1404 -2304 0
-1401 -2401 0
-1402 -2402 0
-1403 -2403 0
-1404 -2404 0
-1401 -2601 0
-1402 -2602 0
-1403 -2603 0
-1404 -2604 0
-1401 -2801 0
-1402 -2802 0
-1403 -2803 0
-1404 -2804 0
-1401 -2901 0
-1402 -2902 0
-1403 -2903 0
-1404 -2904 0
-1501 -1601 0
-1502 -1602 0
-1503 -1603 0
-1504 -1604 0
-1501 -1701 0
-1502 -1702 0
-1503 -1703 0
-1504 -1704 0
-1501 -1901 0
-1502 -1902 0
-1503 -1903 0
-1504 -1904 0
-1501 -2201 0
-1502 -2202 0
-1503 -2203 0
-1504 -2204 0
-1501 -2401 0
-1502 -2402 0
-1503 -2403 0
-1504 -2404 0
-1501 -2501 0
-1502 -2502 0
-1503 -2503 0
-1504 -2504 0
-1501 -2701 0
-1502 -2702 0
-1503 -2703 0
-1504 -2704 0
-1501 -2801 0
-1502 -2802 0
-1503 -2803 0
-1504 -2804 0
-1501 -2901 0
-1502 -2902 0
-1503 -2903 0
-1504 -2904 0
-1601 -1801 0
-1602 -1802 0
-1603 -1803 0
-1604 -1804 0
-1601 -1901 0
-1602 -1902 0
-1603 -1903 0
-1604 -1904 0
-1601 -2001 0
-1602 -2002 0
-1603 -2003 0
-1604 -2004 0
-1601 -2101 0
-1602 -2102 0
-1603 -2103 0
-1604 -2104 0
-1601 -2201 0
-1602 -2202 0
-1603 -2203 0
-1604 -2204 0
-1601 -2301 0
-1602 -2302 0
-1603 -2303 0
-1604 -2304 0
-1601 -2701 0
-1602 -2702 0
-1603 -2703 0
-1604 -2704 0
-1701 -1901 0
-1702 -1902 0
-1703 -1903 0
-1704 -1904 0
-1701 -2001 0
-1702 -2002 0
-1703 -2003 0
-1704 -2004 0
-1701 -2201 0
-1702 -2202 0
-1703 -2203 0
-1704 -2204 0
-1701 -2301 0
-1702 -2302 0
-1703 -2303 0
-1704 -2304 0
-1701 -2501 0
-1702 -2502 0
-1703 -2503 0
-1704 -2504 0
-1701 -2601 0
-1702 -2602 0
-1703 -2603 0
-1704 -2604 0
-1701 -2701 0
-1702 -2702 0
-1703 -2703 0
-1704 -2704 0
-1701 -2801 0
-1702 -2802 0
-1703 -2803 0
-1704 -2804 0
-1701 -2901 0
-1702 -2902 0
-1703 -2903 0
-1704 -2904 0
-1801 -1901 0
-1802 -1902 0
-1803 -1903 0
-1804 -1904 0
-1801 -2001 0
-1802 -2002 0
-1803 -2003 0
-1804 -2004 0
-1801 -2101 0
-1802 -2102 0
-1803 -2103 0
-1804 -2104 0
-1801 -2401 0
-1802 -2402 0
-1803 -2403 0
-1804 -2404 0
-1801 -2601 0
-1802 -2602 0
-1803 -2603 0
-1804 -2604 0
-1801 -2801 0
-1802 -2802 0
-1803 -2803 0
-1804 -2804 0
-1901 -2101 0
-1902 -2102 0
-1903 -2103 0
-1904 -2104 0
-1901 -2301 0
-1902 -2302 0
-1903 -2303 0
-1904 -2304 0
-1901 -2801 0
-1902 -2802 0
-1903 -2803 0
-1904 -2804 0
-1901 -3001 0
-1902 -3002 0
-1903 -3003 0
-1904 -3004 0
-2001 -2301 0
-2002 -2302 0
-2003 -2303 0
-2004 -2304 0
-2001 -2401 0
-2002 -2402 0
-2003 -2403 0
-2004 -2404 0
-2001 -3001 0
-2002 -3002 0
-2003 -3003 0
-2004 -3004 0
-2101 -2201 0
-2102 -2202 0
-2103 -2203 0
-2104 -2204 0
-2101 -2401 0
-2102 -2402 0
-2103 -2403 0
-2104 -2404 0
-2101 -2501 0
-2102 -2502 0
-2103 -2503 0
-2104 -2504 0
-2101 -2701 0
-2102 -2702 0
-2103 -2703 0
-2104 -2704 0
-2101 -3001 0
-2102 -3002 0
-2103 -3003 0
-2104 -3004 0
-2201 -2301 0
-2202 -2302 0
-2203 -2303 0
-2204 -2304 0
-2201 -2401 0
-2202 -2402 0
-2203 -2403 0
-2204 -2404 0
-2201 -2601 0
-2202 -2602 0
-2203 -2603 0
-2204 -2604 0
-2201 -2901 0
-2202 -2902 0
-2203 -2903 0
-2204 -2904 0
-2301 -3001 0
-2302 -3002 0
-2303 -3003 0
-2304 -3004 0
-2401 -2701 0
-2402 -2702 0
-2403 -2703 0
-2404 -2704 0
-2401 -2901 0
-2402 -2902 0
-2403 -2903 0
-2404 -2904 0
-2401 -3001 0
-2402 -3002 0
-2403 -3003 0
-2404 -3004 0
-2501 -2701 0
-2502 -2702 0
-2503 -2703 0
-2504 -2704 0
-2601 -2701 0
-2602 -2702 0
-2603 -2703 0
-2604 -2704 0
-2701 -2901 0
-2702 -2902 0
-2703 -2903 0
-2704 -2904 0
-2901 -3001 0
-2902 -3002 0
-2903 -3003 0
-2904 -3004 0
